c File: instances/38_0.40_3.col
c
c Description: Random graph of size 38 vertices and P(0.39999999999999997) of edges between any two vertices.
p col 38 703
e 1 5
e 1 7
e 1 12
e 1 13
e 1 15
e 1 20
e 1 24
e 1 25
e 1 29
e 1 30
e 1 31
e 1 33
e 1 35
e 2 7
e 2 11
e 2 12
e 2 13
e 2 14
e 2 15
e 2 16
e 2 17
e 2 23
e 2 25
e 2 27
e 2 29
e 2 31
e 2 33
e 2 35
e 2 38
e 3 4
e 3 5
e 3 6
e 3 8
e 3 9
e 3 11
e 3 12
e 3 16
e 3 17
e 3 22
e 3 24
e 3 29
e 3 30
e 4 5
e 4 8
e 4 11
e 4 18
e 4 20
e 4 24
e 4 25
e 4 27
e 4 28
e 4 30
e 4 31
e 4 33
e 4 34
e 4 35
e 5 6
e 5 7
e 5 12
e 5 13
e 5 16
e 5 17
e 5 18
e 5 19
e 5 20
e 5 22
e 6 9
e 6 14
e 6 16
e 6 17
e 6 19
e 6 21
e 6 22
e 6 25
e 6 26
e 6 27
e 6 28
e 6 32
e 6 34
e 6 37
e 6 38
e 7 10
e 7 11
e 7 14
e 7 15
e 7 17
e 7 18
e 7 19
e 7 22
e 7 25
e 7 31
e 7 35
e 7 38
e 8 11
e 8 12
e 8 14
e 8 17
e 8 18
e 8 19
e 8 27
e 8 28
e 8 32
e 8 33
e 8 36
e 8 38
e 9 15
e 9 16
e 9 19
e 9 23
e 9 24
e 9 26
e 9 28
e 9 29
e 9 30
e 9 31
e 9 32
e 9 33
e 9 34
e 9 35
e 9 38
e 10 11
e 10 13
e 10 16
e 10 17
e 10 18
e 10 21
e 10 23
e 10 24
e 10 34
e 10 36
e 10 38
e 11 12
e 11 13
e 11 14
e 11 18
e 11 19
e 11 20
e 11 21
e 11 29
e 11 30
e 11 35
e 12 16
e 12 17
e 12 21
e 12 23
e 12 24
e 12 26
e 12 27
e 12 28
e 12 30
e 12 35
e 12 37
e 12 38
e 13 14
e 13 19
e 13 20
e 13 23
e 13 24
e 13 32
e 13 33
e 13 38
e 14 15
e 14 18
e 14 19
e 14 21
e 14 22
e 14 26
e 14 28
e 14 31
e 14 34
e 15 16
e 15 17
e 15 20
e 15 22
e 15 23
e 15 25
e 15 26
e 15 36
e 15 37
e 16 17
e 16 20
e 16 23
e 16 26
e 16 29
e 16 34
e 16 35
e 16 38
e 17 25
e 17 26
e 17 27
e 17 32
e 17 33
e 17 34
e 18 20
e 18 24
e 18 25
e 18 27
e 18 29
e 18 30
e 18 32
e 18 34
e 19 21
e 19 23
e 19 24
e 19 25
e 19 26
e 19 32
e 20 23
e 20 31
e 20 33
e 20 34
e 20 37
e 20 38
e 21 23
e 21 24
e 21 26
e 21 31
e 21 36
e 21 37
e 22 24
e 22 31
e 22 37
e 22 38
e 23 31
e 23 32
e 23 35
e 23 37
e 24 25
e 24 26
e 24 27
e 24 28
e 24 29
e 24 33
e 24 34
e 24 38
e 25 31
e 25 34
e 25 37
e 26 28
e 26 29
e 26 31
e 26 32
e 26 34
e 26 35
e 26 37
e 27 28
e 27 32
e 27 33
e 27 36
e 27 37
e 28 29
e 28 32
e 28 33
e 28 36
e 29 30
e 29 33
e 30 31
e 30 32
e 30 33
e 30 36
e 31 35
e 31 37
e 32 34
e 32 36
e 32 37
e 33 35
e 34 35
e 34 37
e 35 36
e 35 38
e 36 37
e 36 38
e 37 38